
Gurobi 10.0.1 (linux64) logging started Sun Nov 26 17:25:30 2023

Set parameter LogFile to value "ArtificialInstance/ExperimentV2/S4T4K3/BaDo/gurobi91.txt"
Gurobi Optimizer version 10.0.1 build v10.0.1rc0 (linux64)

CPU model: AMD EPYC 7H12 64-Core Processor, instruction set [SSE2|AVX|AVX2]
Thread count: 128 physical cores, 128 logical processors, using up to 32 threads

Academic license 656792 - for non-commercial use only - registered to b.___@student.vu.nl
Optimize a model with 945 rows, 1520 columns and 5040 nonzeros
Model fingerprint: 0xe2d59476
Variable types: 0 continuous, 1520 integer (1520 binary)
Coefficient statistics:
  Matrix range     [1e+00, 1e+00]
  Objective range  [2e+00, 2e+01]
  Bounds range     [1e+00, 1e+00]
  RHS range        [1e+00, 1e+00]
Found heuristic solution: objective 579.5516121
Presolve time: 0.01s
Presolved: 945 rows, 1520 columns, 5040 nonzeros
Variable types: 0 continuous, 1520 integer (1520 binary)

Root relaxation: objective 3.859235e+01, 704 iterations, 0.01 seconds (0.00 work units)

    Nodes    |    Current Node    |     Objective Bounds      |     Work
 Expl Unexpl |  Obj  Depth IntInf | Incumbent    BestBd   Gap | It/Node Time

     0     0   38.59235    0  160  579.55161   38.59235  93.3%     -    0s
H    0     0                     171.4035012   38.59235  77.5%     -    0s
H    0     0                      68.4812365   38.59235  43.6%     -    0s
     0     0   41.85389    0  199   68.48124   41.85389  38.9%     -    0s
H    0     0                      58.3748597   41.85389  28.3%     -    0s
H    0     0                      56.9521069   45.33177  20.4%     -    0s
H    0     0                      50.0711110   45.33177  9.47%     -    0s
     0     0   45.37117    0  271   50.07111   45.37117  9.39%     -    0s
     0     0   45.64832    0  257   50.07111   45.64832  8.83%     -    0s
     0     0   45.64832    0  257   50.07111   45.64832  8.83%     -    0s
     0     0   47.30723    0   77   50.07111   47.30723  5.52%     -    0s
     0     0   47.30723    0  157   50.07111   47.30723  5.52%     -    0s
     0     0   47.30723    0  191   50.07111   47.30723  5.52%     -    0s
     0     0   47.30723    0  178   50.07111   47.30723  5.52%     -    0s
     0     0   47.38991    0  166   50.07111   47.38991  5.35%     -    0s
     0     0   48.12283    0   79   50.07111   48.12283  3.89%     -    0s
     0     0   48.21400    0   98   50.07111   48.21400  3.71%     -    0s
     0     0   48.21400    0  104   50.07111   48.21400  3.71%     -    0s
     0     0   48.21400    0   54   50.07111   48.21400  3.71%     -    0s
     0     0   48.56938    0   92   50.07111   48.56938  3.00%     -    0s
     0     0   48.62262    0   69   50.07111   48.62262  2.89%     -    0s
     0     0   50.07111    0   77   50.07111   50.07111  0.00%     -    0s

Cutting planes:
  Gomory: 3
  Zero half: 23

Explored 1 nodes (3800 simplex iterations) in 0.57 seconds (0.15 work units)
Thread count was 32 (of 128 available processors)

Solution count 6: 50.0711 56.9521 58.3749 ... 579.552

Optimal solution found (tolerance 1.00e-04)
Best objective 5.007111099280e+01, best bound 5.007111099280e+01, gap 0.0000%
